letting initialStacks = [40, 46, 21, 13, 44, 35, 23, 27, 11, 25, 14, 43, 17, 7, 48, 41, 37, 36, 34, 1, 28, 18, 26, 9, 50, 10, 12, 51, 38, 42, 29, 49, 5, 16, 32, 20, 33, 24, 6, 19, 31, 8, 15, 47, 39, 3, 2, 22, 45, 30, 4]
